1
150
83
1 3
2 1
4 2
5 3
7 1
8 1
10 2
11 2
13 3
14 1
15 1
16 2
18 2
19 1
22 4
23 1
24 2
25 4
27 3
28 2
29 2
30 1
33 1
34 4
36 5
37 3
38 2
39 3
40 3
41 2
42 1
43 2
44 3
45 3
46 2
47 1
48 1
49 2
50 4
51 3
53 5
54 7
55 1
56 3
57 1
58 2
59 3
60 3
61 3
62 3
63 1
64 1
66 8
67 2
69 3
70 2
71 1
72 3
73 1
74 2
75 1
76 1
77 6
78 4
79 2
80 1
81 1
82 3
83 4
85 2
86 2
87 2
88 1
89 3
90 3
91 2
92 1
93 2
94 3
96 4
97 5
98 2
100 1
